(declare-fun var0 () String)
(assert (RegexIn var0 (RegexConcat (RegexStar (RegexUnion (Str2Reg ">>>") (Str2Reg "???"))) (RegexConcat (RegexUnion (RegexPlus (Str2Reg "<<")) (RegexStar (Str2Reg "==="))) (RegexConcat (RegexPlus (RegexUnion (Str2Reg ":::") (Str2Reg ";;;"))) (RegexConcat (RegexPlus (RegexStar (Str2Reg "///"))) (RegexConcat (RegexUnion (RegexPlus (Str2Reg "--")) (RegexPlus (Str2Reg "."))) (RegexConcat (RegexUnion (RegexStar (Str2Reg "+")) (RegexPlus (Str2Reg ","))) (RegexConcat (RegexPlus (RegexPlus (Str2Reg "**"))) (RegexConcat (RegexPlus (RegexStar (Str2Reg "))"))) (RegexConcat (RegexPlus (RegexStar (Str2Reg "("))) (RegexConcat (RegexUnion (RegexUnion (Str2Reg "%%%") (Str2Reg "&")) (RegexStar (Str2Reg "'''"))) (RegexConcat (RegexUnion (RegexPlus (Str2Reg "#")) (RegexPlus (Str2Reg "$"))) (RegexConcat (RegexPlus (RegexUnion (Str2Reg "!!!") (Str2Reg "\"\""))) (RegexConcat (RegexPlus (RegexStar (Str2Reg "ZZ"))) (RegexConcat (RegexStar (RegexPlus (Str2Reg "YYY"))) (RegexConcat (RegexPlus (RegexUnion (Str2Reg "W") (Str2Reg "XX"))) (RegexConcat (RegexPlus (RegexUnion (Str2Reg "UUU") (Str2Reg "VVV"))) (RegexConcat (RegexPlus (RegexPlus (Str2Reg "TT"))) (RegexConcat (RegexPlus (RegexStar (Str2Reg "SSS"))) (RegexConcat (RegexUnion (RegexUnion (Str2Reg "PPP") (Str2Reg "Q")) (RegexStar (Str2Reg "RR"))) (RegexConcat (RegexUnion (RegexUnion (Str2Reg "M") (Str2Reg "NN")) (RegexPlus (Str2Reg "O"))) (RegexConcat (RegexStar (RegexUnion (Str2Reg "KKK") (Str2Reg "LLL"))) (RegexConcat (RegexUnion (RegexStar (Str2Reg "III")) (RegexPlus (Str2Reg "JJJ"))) (RegexConcat (RegexStar (RegexPlus (Str2Reg "HH"))) (RegexConcat (RegexPlus (RegexPlus (Str2Reg "G"))) (RegexConcat (RegexUnion (RegexUnion (Str2Reg "D") (Str2Reg "EE")) (RegexPlus (Str2Reg "FF"))) (RegexConcat (RegexPlus (RegexPlus (Str2Reg "CCC"))) (RegexConcat (RegexUnion (RegexUnion (Str2Reg "yyy") (Str2Reg "zz")) (RegexUnion (Str2Reg "A") (Str2Reg "BB"))) (RegexConcat (RegexPlus (RegexStar (Str2Reg "xx"))) (RegexConcat (RegexPlus (RegexPlus (Str2Reg "w"))) (RegexConcat (RegexStar (RegexUnion (Str2Reg "uu") (Str2Reg "vv"))) (RegexConcat (RegexPlus (RegexStar (Str2Reg "ttt"))) (RegexConcat (RegexUnion (RegexPlus (Str2Reg "rr")) (RegexStar (Str2Reg "s"))) (RegexConcat (RegexUnion (RegexPlus (Str2Reg "p")) (RegexStar (Str2Reg "q"))) (RegexConcat (RegexPlus (RegexPlus (Str2Reg "ooo"))) (RegexConcat (RegexUnion (RegexUnion (Str2Reg "l") (Str2Reg "mm")) (RegexPlus (Str2Reg "nnn"))) (RegexConcat (RegexStar (RegexStar (Str2Reg "k"))) (RegexConcat (RegexPlus (RegexUnion (Str2Reg "i") (Str2Reg "j"))) (RegexConcat (RegexUnion (RegexUnion (Str2Reg "e") (Str2Reg "f")) (RegexUnion (Str2Reg "g") (Str2Reg "h"))) (RegexConcat (RegexPlus (RegexStar (Str2Reg "d"))) (RegexConcat (RegexPlus (RegexStar (Str2Reg "ccc"))) (RegexConcat (RegexPlus (RegexUnion (Str2Reg "a") (Str2Reg "bbb"))) (RegexConcat (RegexPlus (RegexPlus (Str2Reg "99"))) (RegexConcat (RegexPlus (RegexStar (Str2Reg "888"))) (RegexConcat (RegexStar (RegexUnion (Str2Reg "66") (Str2Reg "77"))) (RegexConcat (RegexUnion (RegexUnion (Str2Reg "3") (Str2Reg "44")) (RegexPlus (Str2Reg "5"))) (RegexUnion (RegexUnion (Str2Reg "0") (Str2Reg "1")) (RegexStar (Str2Reg "222"))))))))))))))))))))))))))))))))))))))))))))))))))
(assert (not (RegexIn var0 (RegexConcat (RegexUnion (RegexPlus (Str2Reg ";")) (RegexStar (Str2Reg "<<<"))) (RegexConcat (RegexStar (RegexStar (Str2Reg ":::"))) (RegexConcat (RegexStar (RegexPlus (Str2Reg "//"))) (RegexConcat (RegexStar (RegexStar (Str2Reg ".."))) (RegexConcat (RegexStar (RegexStar (Str2Reg "-"))) (RegexConcat (RegexUnion (RegexPlus (Str2Reg "++")) (RegexStar (Str2Reg ","))) (RegexConcat (RegexUnion (RegexPlus (Str2Reg ")")) (RegexPlus (Str2Reg "*"))) (RegexConcat (RegexPlus (RegexPlus (Str2Reg "(("))) (RegexConcat (RegexStar (RegexPlus (Str2Reg "''"))) (RegexConcat (RegexPlus (RegexPlus (Str2Reg "&"))) (RegexConcat (RegexStar (RegexUnion (Str2Reg "$$$") (Str2Reg "%%%"))) (RegexConcat (RegexUnion (RegexPlus (Str2Reg "\"")) (RegexPlus (Str2Reg "#"))) (RegexConcat (RegexStar (RegexStar (Str2Reg "!"))) (RegexConcat (RegexStar (RegexPlus (Str2Reg "ZZZ"))) (RegexConcat (RegexUnion (RegexStar (Str2Reg "XX")) (RegexPlus (Str2Reg "YYY"))) (RegexConcat (RegexStar (RegexUnion (Str2Reg "V") (Str2Reg "WW"))) (RegexConcat (RegexPlus (RegexPlus (Str2Reg "UU"))) (RegexConcat (RegexStar (RegexUnion (Str2Reg "SS") (Str2Reg "TT"))) (RegexConcat (RegexUnion (RegexStar (Str2Reg "P")) (RegexUnion (Str2Reg "QQQ") (Str2Reg "R"))) (RegexConcat (RegexPlus (RegexUnion (Str2Reg "NNN") (Str2Reg "OOO"))) (RegexConcat (RegexPlus (RegexPlus (Str2Reg "MMM"))) (RegexConcat (RegexUnion (RegexUnion (Str2Reg "JJ") (Str2Reg "K")) (RegexStar (Str2Reg "L"))) (RegexConcat (RegexPlus (RegexPlus (Str2Reg "II"))) (RegexConcat (RegexUnion (RegexPlus (Str2Reg "GGG")) (RegexPlus (Str2Reg "HHH"))) (RegexConcat (RegexStar (RegexStar (Str2Reg "FF"))) (RegexConcat (RegexUnion (RegexUnion (Str2Reg "BBB") (Str2Reg "C")) (RegexUnion (Str2Reg "DD") (Str2Reg "EEE"))) (RegexConcat (RegexPlus (RegexUnion (Str2Reg "z") (Str2Reg "AAA"))) (RegexConcat (RegexPlus (RegexStar (Str2Reg "yyy"))) (RegexConcat (RegexPlus (RegexUnion (Str2Reg "www") (Str2Reg "x"))) (RegexConcat (RegexUnion (RegexStar (Str2Reg "uuu")) (RegexPlus (Str2Reg "vv"))) (RegexConcat (RegexUnion (RegexUnion (Str2Reg "rr") (Str2Reg "ss")) (RegexStar (Str2Reg "tt"))) (RegexConcat (RegexStar (RegexPlus (Str2Reg "qqq"))) (RegexConcat (RegexUnion (RegexStar (Str2Reg "n")) (RegexUnion (Str2Reg "ooo") (Str2Reg "ppp"))) (RegexConcat (RegexPlus (RegexStar (Str2Reg "mm"))) (RegexConcat (RegexUnion (RegexStar (Str2Reg "k")) (RegexPlus (Str2Reg "l"))) (RegexConcat (RegexUnion (RegexPlus (Str2Reg "i")) (RegexPlus (Str2Reg "jj"))) (RegexConcat (RegexPlus (RegexUnion (Str2Reg "g") (Str2Reg "hhh"))) (RegexConcat (RegexPlus (RegexStar (Str2Reg "f"))) (RegexConcat (RegexUnion (RegexStar (Str2Reg "d")) (RegexStar (Str2Reg "e"))) (RegexConcat (RegexStar (RegexUnion (Str2Reg "b") (Str2Reg "c"))) (RegexConcat (RegexUnion (RegexUnion (Str2Reg "77") (Str2Reg "8")) (RegexUnion (Str2Reg "999") (Str2Reg "aaa"))) (RegexConcat (RegexPlus (RegexStar (Str2Reg "6"))) (RegexConcat (RegexUnion (RegexStar (Str2Reg "44")) (RegexPlus (Str2Reg "55"))) (RegexConcat (RegexPlus (RegexPlus (Str2Reg "333"))) (RegexConcat (RegexStar (RegexStar (Str2Reg "222"))) (RegexUnion (RegexStar (Str2Reg "0")) (RegexPlus (Str2Reg "111")))))))))))))))))))))))))))))))))))))))))))))))))))
(check-sat)